Grasp exp. instance_n_25_m_5_id_1.lp tipoLifted 0 szPool 5 nIteration 20 alpha 0.4 
Academic license - for non-commercial use only
Read LP format model from file ../input/instancesGenerated/instance_n_25_m_5_id_1.lp
Reading time = 0.00 seconds
: 5 rows, 25 columns, 125 nonzeros
Optimize a model with 5 rows, 25 columns and 125 nonzeros
Variable types: 0 continuous, 25 integer (25 binary)
Coefficient statistics:
  Matrix range     [1e+00, 1e+01]
  Objective range  [1e+00, 1e+01]
  Bounds range     [1e+00, 1e+00]
  RHS range        [5e+01, 8e+01]
Found heuristic solution: objective 48.0000000

Explored 0 nodes (0 simplex iterations) in 0.00 seconds
Thread count was 1 (of 8 available processors)

Solution count 1: 48 
No other solutions better than 0

Solution limit reached
Best objective 4.800000000000e+01, best bound -, gap -
C_1:	 9.00 x_1  = 1.000000 + 5.00 x_2  = 1.000000 + 9.00 x_3  = 0.000000 + 8.00 x_4  = 1.000000 + 9.00 x_5  = 0.000000 + 5.00 x_6  = 0.000000 + 6.00 x_7  = 0.000000 + 5.00 x_8  = 1.000000 + 7.00 x_9  = 0.000000 + 10.00 x_10  = 0.000000 + 5.00 x_11  = 1.000000 + 1.00 x_12  = 0.000000 + 3.00 x_13  = 0.000000 + 2.00 x_14  = 1.000000 + 4.00 x_15  = 1.000000 + 5.00 x_16  = 0.000000 + 2.00 x_17  = 1.000000 + 7.00 x_18  = 0.317073 + 7.00 x_19  = 0.707317 + 7.00 x_20  = 1.000000 + 9.00 x_21  = 0.000000 + 9.00 x_22  = 1.000000 + 4.00 x_23  = 1.000000 + 2.00 x_24  = 0.000000 + 4.00 x_25  = 1.000000 <= 72.00
C_2:	 3.00 x_1  = 1.000000 + 2.00 x_2  = 1.000000 + 5.00 x_3  = 0.000000 + 7.00 x_4  = 1.000000 + 5.00 x_5  = 0.000000 + 5.00 x_6  = 0.000000 + 5.00 x_7  = 0.000000 + 10.00 x_8  = 1.000000 + 3.00 x_9  = 0.000000 + 4.00 x_10  = 0.000000 + 10.00 x_11  = 1.000000 + 9.00 x_12  = 0.000000 + 9.00 x_13  = 0.000000 + 4.00 x_14  = 1.000000 + 8.00 x_15  = 1.000000 + 10.00 x_16  = 0.000000 + 1.00 x_17  = 1.000000 + 10.00 x_18  = 0.317073 + 4.00 x_19  = 0.707317 + 4.00 x_20  = 1.000000 + 3.00 x_21  = 0.000000 + 8.00 x_22  = 1.000000 + 6.00 x_23  = 1.000000 + 9.00 x_24  = 0.000000 + 6.00 x_25  = 1.000000 <= 75.00
C_3:	 4.00 x_1  = 1.000000 + 9.00 x_2  = 1.000000 + 5.00 x_3  = 0.000000 + 7.00 x_4  = 1.000000 + 10.00 x_5  = 0.000000 + 10.00 x_6  = 0.000000 + 1.00 x_7  = 0.000000 + 3.00 x_8  = 1.000000 + 4.00 x_9  = 0.000000 + 7.00 x_10  = 0.000000 + 8.00 x_11  = 1.000000 + 8.00 x_12  = 0.000000 + 3.00 x_13  = 0.000000 + 9.00 x_14  = 1.000000 + 3.00 x_15  = 1.000000 + 8.00 x_16  = 0.000000 + 8.00 x_17  = 1.000000 + 3.00 x_18  = 0.317073 + 8.00 x_19  = 0.707317 + 3.00 x_20  = 1.000000 + 10.00 x_21  = 0.000000 + 7.00 x_22  = 1.000000 + 5.00 x_23  = 1.000000 + 9.00 x_24  = 0.000000 + 3.00 x_25  = 1.000000 <= 77.00
C_4:	 9.00 x_1  = 1.000000 + 1.00 x_2  = 1.000000 + 10.00 x_3  = 0.000000 + 6.00 x_4  = 1.000000 + 1.00 x_5  = 0.000000 + 6.00 x_6  = 0.000000 + 9.00 x_7  = 0.000000 + 9.00 x_8  = 1.000000 + 10.00 x_9  = 0.000000 + 7.00 x_10  = 0.000000 + 10.00 x_11  = 1.000000 + 9.00 x_12  = 0.000000 + 7.00 x_13  = 0.000000 + 3.00 x_14  = 1.000000 + 2.00 x_15  = 1.000000 + 5.00 x_16  = 0.000000 + 10.00 x_17  = 1.000000 + 2.00 x_18  = 0.317073 + 9.00 x_19  = 0.707317 + 8.00 x_20  = 1.000000 + 6.00 x_21  = 0.000000 + 6.00 x_22  = 1.000000 + 7.00 x_23  = 1.000000 + 8.00 x_24  = 0.000000 + 3.00 x_25  = 1.000000 <= 81.00
C_5:	 9.00 x_1  = 1.000000 + 8.00 x_2  = 1.000000 + 1.00 x_3  = 0.000000 + 4.00 x_4  = 1.000000 + 8.00 x_5  = 0.000000 + 3.00 x_6  = 0.000000 + 4.00 x_7  = 0.000000 + 1.00 x_8  = 1.000000 + 5.00 x_9  = 0.000000 + 9.00 x_10  = 0.000000 + 1.00 x_11  = 1.000000 + 10.00 x_12  = 0.000000 + 7.00 x_13  = 0.000000 + 2.00 x_14  = 1.000000 + 1.00 x_15  = 1.000000 + 3.00 x_16  = 0.000000 + 1.00 x_17  = 1.000000 + 1.00 x_18  = 0.317073 + 1.00 x_19  = 0.707317 + 5.00 x_20  = 1.000000 + 4.00 x_21  = 0.000000 + 5.00 x_22  = 1.000000 + 6.00 x_23  = 1.000000 + 5.00 x_24  = 0.000000 + 3.00 x_25  = 1.000000 <= 53.00
Solution initial: 87.170732 
Number Constraints Used in Cover:5
GRASP Method!
Number cuts repeat: 0
value: 87.170732
Number Constraints Used in Cover:6
GRASP Method!
Number cuts repeat: 0
value: 87.170732
Number Constraints Used in Cover:11
GRASP Method!
Number cuts repeat: 0
value: 87.170732
Number Constraints Used in Cover:13
GRASP Method!
Number cuts repeat: 0
value: 87.170732
Number Constraints Used in Cover:17
GRASP Method!
Number cuts repeat: 0
value: 87.170732
Number Constraints Used in Cover:17
GRASP Method!
Number cuts repeat: 0
value: 87.170732
Number Constraints Used in Cover:18
GRASP Method!
Number cuts repeat: 0
value: 87.170732
Number Constraints Used in Cover:20
GRASP Method!
Number cuts repeat: 0
value: 87.170732
Number Constraints Used in Cover:22
GRASP Method!
Number cuts repeat: 0
value: 87.170732
Number Constraints Used in Cover:22
GRASP Method!
Number cuts repeat: 0
value: 87.170732
Number Constraints Used in Cover:27
GRASP Method!
Number cuts repeat: 0
value: 87.170732
Number Constraints Used in Cover:29
GRASP Method!
Number cuts repeat: 0
value: 87.170732
Number Constraints Used in Cover:29
GRASP Method!
Number cuts repeat: 0
value: 87.170732
Number Constraints Used in Cover:34
GRASP Method!
Number cuts repeat: 0
value: 87.170732
Number Constraints Used in Cover:35
GRASP Method!
Number cuts repeat: 0
value: 87.170732
Number Constraints Used in Cover:35
GRASP Method!
Number cuts repeat: 0
value: 87.170732
Number Constraints Used in Cover:35
GRASP Method!
Number cuts repeat: 0
value: 87.170732
Number Constraints Used in Cover:36
GRASP Method!
Number cuts repeat: 0
value: 87.170732
Number Constraints Used in Cover:41
GRASP Method!
Number cuts repeat: 0
value: 87.170732
Number Constraints Used in Cover:45
GRASP Method!
Number cuts repeat: 0
value: 87.170732
Number Constraints Used in Cover:48
GRASP Method!
Number cuts repeat: 0
value: 87.170732
Number Constraints Used in Cover:49
GRASP Method!
Number cuts repeat: 0
value: 87.170732
Number Constraints Used in Cover:52
GRASP Method!
Number cuts repeat: 0
value: 87.170732
Number Constraints Used in Cover:53
GRASP Method!
Number cuts repeat: 0
value: 87.170732
Number Constraints Used in Cover:57
GRASP Method!
Number cuts repeat: 0
value: 87.170732
Number Constraints Used in Cover:59
GRASP Method!
Number cuts repeat: 0
value: 87.170732
Number Constraints Used in Cover:62
GRASP Method!
Number cuts repeat: 0
value: 87.170732
Number Constraints Used in Cover:62
GRASP Method!
Number cuts repeat: 0
value: 87.170732
Number Constraints Used in Cover:63
GRASP Method!
Number cuts repeat: 0
value: 87.170732
Number Constraints Used in Cover:68
GRASP Method!
Number cuts repeat: 0
value: 87.170732
Number Constraints Used in Cover:71
GRASP Method!
Number cuts repeat: 0
value: 87.170732
Number Constraints Used in Cover:71
GRASP Method!
Number cuts repeat: 0
value: 87.170732
Number Constraints Used in Cover:71
GRASP Method!
Number cuts repeat: 0
value: 87.170732
Number Constraints Used in Cover:71
GRASP Method!
Number cuts repeat: 0
value: 87.170732
Number Constraints Used in Cover:72
GRASP Method!
Number cuts repeat: 0
value: 87.170732
Number Constraints Used in Cover:77
GRASP Method!
Number cuts repeat: 0
value: 87.170732
Number Constraints Used in Cover:82
GRASP Method!
Number cuts repeat: 0
value: 87.170732
Number Constraints Used in Cover:84
GRASP Method!
Number cuts repeat: 0
value: 87.170732
Number Constraints Used in Cover:84
GRASP Method!
Number cuts repeat: 0
value: 87.170732
Number Constraints Used in Cover:88
GRASP Method!
Number cuts repeat: 0
value: 87.170732
Number Constraints Used in Cover:88
GRASP Method!
Number cuts repeat: 0
value: 87.170732
Number Constraints Used in Cover:89
GRASP Method!
Number cuts repeat: 0
value: 87.170732
Number Constraints Used in Cover:89
GRASP Method!
Number cuts repeat: 0
value: 87.170732
Number Constraints Used in Cover:92
GRASP Method!
Number cuts repeat: 0
value: 87.170732
Number Constraints Used in Cover:95
GRASP Method!
Number cuts repeat: 0
value: 87.170732
Number Constraints Used in Cover:98
GRASP Method!
Number cuts repeat: 0
value: 87.170732
Number Constraints Used in Cover:100
GRASP Method!
Number cuts repeat: 0
value: 87.170732
Number Constraints Used in Cover:102
GRASP Method!
Number cuts repeat: 0
value: 87.170732
Number Constraints Used in Cover:102
GRASP Method!
Number cuts repeat: 0
value: 87.170732
Number Constraints Used in Cover:102
GRASP Method!
Number cuts repeat: 0
value: 87.170732
Number Constraints Used in Cover:107
GRASP Method!
Number cuts repeat: 0
value: 87.170732
Number Constraints Used in Cover:111
GRASP Method!
Number cuts repeat: 0
value: 87.170732
Number Constraints Used in Cover:111
GRASP Method!
Number cuts repeat: 0
value: 87.170732
Number Constraints Used in Cover:112
GRASP Method!
Number cuts repeat: 0
value: 87.170732
Number Constraints Used in Cover:115
GRASP Method!
Number cuts repeat: 0
value: 87.170732
Number Constraints Used in Cover:116
GRASP Method!
Number cuts repeat: 0
value: 87.170732
Number Constraints Used in Cover:116
GRASP Method!
Number cuts repeat: 0
value: 87.170732
Number Constraints Used in Cover:116
GRASP Method!
Number cuts repeat: 0
value: 87.170732
Number Constraints Used in Cover:116
GRASP Method!
Number cuts repeat: 0
value: 87.170732
Number Constraints Used in Cover:116
GRASP Method!
Number cuts repeat: 0
value: 87.170732
Number Constraints Used in Cover:116
GRASP Method!
Number cuts repeat: 0
value: 87.170732
Number Constraints Used in Cover:118
GRASP Method!
Number cuts repeat: 0
value: 87.170732
Number Constraints Used in Cover:120
GRASP Method!
Number cuts repeat: 0
value: 87.170732
Number Constraints Used in Cover:123
GRASP Method!
Number cuts repeat: 0
value: 87.170732
Number Constraints Used in Cover:126
GRASP Method!
Number cuts repeat: 0
value: 87.170732
Number Constraints Used in Cover:126
GRASP Method!
Number cuts repeat: 0
value: 87.170732
Number Constraints Used in Cover:128
GRASP Method!
Number cuts repeat: 0
value: 87.170732
Number Constraints Used in Cover:131
GRASP Method!
Number cuts repeat: 0
value: 87.170732
Number Constraints Used in Cover:132
GRASP Method!
Number cuts repeat: 0
value: 87.170732
Number Constraints Used in Cover:134
GRASP Method!
Number cuts repeat: 0
value: 87.170732
Number Constraints Used in Cover:135
GRASP Method!
Number cuts repeat: 0
value: 87.170732
Number Constraints Used in Cover:136
GRASP Method!
Number cuts repeat: 0
value: 87.170732
Number Constraints Used in Cover:138
GRASP Method!
Number cuts repeat: 0
value: 87.170732
Number Constraints Used in Cover:138
GRASP Method!
Number cuts repeat: 0
value: 87.170732
Number Constraints Used in Cover:138
GRASP Method!
Number cuts repeat: 0
value: 87.170732
Number Constraints Used in Cover:140
GRASP Method!
Number cuts repeat: 0
value: 87.170732
Number Constraints Used in Cover:144
GRASP Method!
Number cuts repeat: 0
value: 87.170732
Number Constraints Used in Cover:145
GRASP Method!
Number cuts repeat: 0
value: 87.170732
Number Constraints Used in Cover:150
GRASP Method!
Number cuts repeat: 0
value: 87.170732
Number Constraints Used in Cover:151
GRASP Method!
Number cuts repeat: 0
value: 87.170732
Number Constraints Used in Cover:151
GRASP Method!
Number cuts repeat: 0
value: 87.170732
Number Constraints Used in Cover:154
GRASP Method!
Number cuts repeat: 0
value: 87.170732
Number Constraints Used in Cover:157
GRASP Method!
Number cuts repeat: 0
value: 87.170732
Number Constraints Used in Cover:158
GRASP Method!
Number cuts repeat: 0
value: 87.170732
Number Constraints Used in Cover:158
GRASP Method!
Number cuts repeat: 0
value: 87.170732
Number Constraints Used in Cover:159
GRASP Method!
Number cuts repeat: 0
value: 87.170732
Number Constraints Used in Cover:159
GRASP Method!
Number cuts repeat: 0
value: 87.170732
Number Constraints Used in Cover:159
GRASP Method!
Number cuts repeat: 0
value: 87.170732
Number Constraints Used in Cover:159
GRASP Method!
Number cuts repeat: 0
value: 87.170732
Number Constraints Used in Cover:162
GRASP Method!
Number cuts repeat: 0
value: 87.170732
Number Constraints Used in Cover:162
GRASP Method!
Number cuts repeat: 0
value: 87.170732
Number Constraints Used in Cover:163
GRASP Method!
Number cuts repeat: 0
value: 87.170732
Number Constraints Used in Cover:163
GRASP Method!
Number cuts repeat: 0
value: 87.170732
Number Constraints Used in Cover:163
GRASP Method!
Number cuts repeat: 0
value: 87.170732
Number Constraints Used in Cover:163
GRASP Method!
Number cuts repeat: 0
value: 87.170732
Number Constraints Used in Cover:163
GRASP Method!
Number cuts repeat: 0
value: 87.170732
Number Constraints Used in Cover:167
GRASP Method!
Number cuts repeat: 0
value: 87.170732
Number Constraints Used in Cover:167
GRASP Method!
Number cuts repeat: 0
value: 87.170732
Number Constraints Used in Cover:167
GRASP Method!
Number cuts repeat: 0
value: 87.170732
Number Constraints Used in Cover:168
GRASP Method!
Number cuts repeat: 0
value: 87.170732
Number Constraints Used in Cover:170
GRASP Method!
Number cuts repeat: 0
value: 87.170732
Number Constraints Used in Cover:175
GRASP Method!
Number cuts repeat: 0
value: 87.170732
Number Constraints Used in Cover:175
GRASP Method!
Number cuts repeat: 0
value: 87.170732
Number Constraints Used in Cover:178
GRASP Method!
Number cuts repeat: 0
value: 87.170732
Number Constraints Used in Cover:179
GRASP Method!
Number cuts repeat: 0
value: 87.170732
Number Constraints Used in Cover:179
GRASP Method!
Number cuts repeat: 0
value: 87.170732
Number Constraints Used in Cover:179
GRASP Method!
Number cuts repeat: 0
value: 87.170732
Number Constraints Used in Cover:179
GRASP Method!
Number cuts repeat: 0
value: 87.170732
Number Constraints Used in Cover:179
GRASP Method!
Number cuts repeat: 0
value: 87.170732
Number Constraints Used in Cover:182
GRASP Method!
Number cuts repeat: 0
value: 87.170732
Number Constraints Used in Cover:184
GRASP Method!
Number cuts repeat: 0
value: 87.170732
Number Constraints Used in Cover:184
GRASP Method!
Number cuts repeat: 0
value: 87.170732
Number Constraints Used in Cover:187
GRASP Method!
Number cuts repeat: 0
value: 87.170732
Number Constraints Used in Cover:187
GRASP Method!
Number cuts repeat: 0
value: 87.170732
Number Constraints Used in Cover:191
GRASP Method!
Number cuts repeat: 0
value: 87.170732
Number Constraints Used in Cover:193
GRASP Method!
Number cuts repeat: 0
value: 87.170732
Number Constraints Used in Cover:197
GRASP Method!
Number cuts repeat: 0
value: 87.170732
Number Constraints Used in Cover:197
GRASP Method!
Number cuts repeat: 0
value: 87.170732
Number Constraints Used in Cover:197
GRASP Method!
Number cuts repeat: 0
value: 87.170732
Number Constraints Used in Cover:200
GRASP Method!
Number cuts repeat: 0
value: 87.170732
Number Constraints Used in Cover:200
GRASP Method!
Number cuts repeat: 0
value: 87.170732
Number Constraints Used in Cover:200
GRASP Method!
Number cuts repeat: 0
value: 87.170732
Number Constraints Used in Cover:200
GRASP Method!
Number cuts repeat: 0
value: 87.170732
Number Constraints Used in Cover:200
GRASP Method!
Number cuts repeat: 0
value: 87.170732
Number Constraints Used in Cover:202
GRASP Method!
Number cuts repeat: 0
value: 87.170732
Number Constraints Used in Cover:202
GRASP Method!
Number cuts repeat: 0
value: 87.170732
Number Constraints Used in Cover:203
GRASP Method!
Number cuts repeat: 0
value: 87.170732
Number Constraints Used in Cover:203
GRASP Method!
Number cuts repeat: 0
value: 87.170732
Number Constraints Used in Cover:204
GRASP Method!
Number cuts repeat: 0
value: 87.170732
Number Constraints Used in Cover:204
GRASP Method!
Number cuts repeat: 0
value: 87.170732
Number Constraints Used in Cover:207
GRASP Method!
Number cuts repeat: 0
value: 87.170732
Number Constraints Used in Cover:208
GRASP Method!
Number cuts repeat: 0
value: 87.170732
Number Constraints Used in Cover:208
GRASP Method!
Number cuts repeat: 0
value: 87.170732
Number Constraints Used in Cover:212
GRASP Method!
Number cuts repeat: 0
value: 87.170732
Number Constraints Used in Cover:216
GRASP Method!
Number cuts repeat: 0
value: 87.170732
Number Constraints Used in Cover:216
GRASP Method!
Number cuts repeat: 0
value: 87.170732
Number Constraints Used in Cover:220
GRASP Method!
Number cuts repeat: 0
value: 87.170732
Number Constraints Used in Cover:222
GRASP Method!
Number cuts repeat: 0
value: 87.170732
Number Constraints Used in Cover:222
GRASP Method!
Number cuts repeat: 0
value: 87.170732
Number Constraints Used in Cover:222
GRASP Method!
Number cuts repeat: 0
value: 87.170732
Number Constraints Used in Cover:223
GRASP Method!
Number cuts repeat: 0
value: 87.170732
Number Constraints Used in Cover:223
GRASP Method!
Number cuts repeat: 0
value: 87.170732
Number Constraints Used in Cover:223
GRASP Method!
Number cuts repeat: 0
value: 87.170732
Number Constraints Used in Cover:224
GRASP Method!
Number cuts repeat: 0
value: 87.170732
Number Constraints Used in Cover:224
GRASP Method!
Number cuts repeat: 0
value: 87.170732
Number Constraints Used in Cover:224
GRASP Method!
Number cuts repeat: 0
value: 87.170732
Number Constraints Used in Cover:224
GRASP Method!
Number cuts repeat: 0
value: 87.170732
Number Constraints Used in Cover:224
GRASP Method!
Number cuts repeat: 0
value: 87.170732
Number Constraints Used in Cover:224
GRASP Method!
Number cuts repeat: 0
value: 87.170732
Number Constraints Used in Cover:224
GRASP Method!
Number cuts repeat: 0
value: 87.170732
Number Constraints Used in Cover:224
GRASP Method!
Number cuts repeat: 0
value: 87.170732
Number Constraints Used in Cover:224
GRASP Method!
Number cuts repeat: 0
value: 87.170732
Number Constraints Used in Cover:224
GRASP Method!
Number cuts repeat: 0
value: 87.170732
Number Constraints Used in Cover:224
GRASP Method!
Number cuts repeat: 0
value: 87.170732
Number Constraints Used in Cover:224
GRASP Method!
Number cuts repeat: 0
value: 87.170732
Number Constraints Used in Cover:227
GRASP Method!
Number cuts repeat: 0
value: 87.170732
Number Constraints Used in Cover:227
GRASP Method!
Number cuts repeat: 0
value: 87.170732
Number Constraints Used in Cover:231
GRASP Method!
Number cuts repeat: 0
value: 87.170732
Number Constraints Used in Cover:231
GRASP Method!
Number cuts repeat: 0
value: 87.170732
Number Constraints Used in Cover:231
GRASP Method!
Number cuts repeat: 0
value: 87.170732
Number Constraints Used in Cover:231
GRASP Method!
Number cuts repeat: 0
value: 87.170732
Number Constraints Used in Cover:231
GRASP Method!
Number cuts repeat: 0
value: 87.170732
Number Constraints Used in Cover:233
GRASP Method!
Number cuts repeat: 0
value: 87.170732
Number Constraints Used in Cover:233
GRASP Method!
Number cuts repeat: 0
value: 87.170732
Number Constraints Used in Cover:235
GRASP Method!
Number cuts repeat: 0
value: 87.170732
Number Constraints Used in Cover:235
GRASP Method!
Number cuts repeat: 0
value: 87.170732
Number Constraints Used in Cover:238
GRASP Method!
Number cuts repeat: 0
value: 87.170732
Number Constraints Used in Cover:238
GRASP Method!
Number cuts repeat: 0
value: 87.170732
Number Constraints Used in Cover:238
GRASP Method!
Number cuts repeat: 0
value: 87.170732
Number Constraints Used in Cover:238
GRASP Method!
Number cuts repeat: 0
value: 87.170732
Number Constraints Used in Cover:238
GRASP Method!
Number cuts repeat: 0
value: 87.170732
Number Constraints Used in Cover:238
GRASP Method!
Number cuts repeat: 0
value: 87.170732
Number Constraints Used in Cover:238
GRASP Method!
Number cuts repeat: 0
value: 87.170732
Number Constraints Used in Cover:238
GRASP Method!
Number cuts repeat: 0
value: 87.170732
Number Constraints Used in Cover:240
GRASP Method!
Number cuts repeat: 0
value: 87.170732
Number Constraints Used in Cover:240
GRASP Method!
Number cuts repeat: 0
value: 87.170732
Number Constraints Used in Cover:240
GRASP Method!
Number cuts repeat: 0
value: 87.170732
Number Constraints Used in Cover:240
GRASP Method!
Number cuts repeat: 0
value: 87.170732
Number Constraints Used in Cover:240
GRASP Method!
Number cuts repeat: 0
value: 87.170732
Number Constraints Used in Cover:240
GRASP Method!
Number cuts repeat: 0
value: 87.170732
Number Constraints Used in Cover:240
GRASP Method!
Number cuts repeat: 0
value: 87.170732
Number Constraints Used in Cover:242
GRASP Method!
Number cuts repeat: 0
value: 87.170732
Number Constraints Used in Cover:242
GRASP Method!
Number cuts repeat: 0
value: 87.170732
Number Constraints Used in Cover:243
GRASP Method!
Number cuts repeat: 0
value: 87.170732
Number Constraints Used in Cover:243
GRASP Method!
Number cuts repeat: 0
value: 87.170732
Number Constraints Used in Cover:243
GRASP Method!
Number cuts repeat: 0
value: 87.170732
Number Constraints Used in Cover:243
GRASP Method!
Number cuts repeat: 0
value: 87.170732
Number Constraints Used in Cover:243
GRASP Method!
Number cuts repeat: 0
value: 87.170732
Number Constraints Used in Cover:246
GRASP Method!
Number cuts repeat: 0
value: 87.170732
Number Constraints Used in Cover:251
GRASP Method!
Number cuts repeat: 0
value: 87.170732
Number Constraints Used in Cover:251
GRASP Method!
Number cuts repeat: 0
value: 87.170732
Number Constraints Used in Cover:251
GRASP Method!
Number cuts repeat: 0
value: 87.170732
Number Constraints Used in Cover:251
GRASP Method!
Number cuts repeat: 0
value: 87.170732
Number Constraints Used in Cover:251
GRASP Method!
Number cuts repeat: 0
value: 87.170732
Number Constraints Used in Cover:251
GRASP Method!
Number cuts repeat: 0
value: 87.170732
Number Constraints Used in Cover:251
GRASP Method!
Number cuts repeat: 0
value: 87.170732
Number Constraints Used in Cover:251
GRASP Method!
Number cuts repeat: 0
value: 87.170732
Number Constraints Used in Cover:251
GRASP Method!
Number cuts repeat: 0
value: 87.170732
Number Constraints Used in Cover:255
GRASP Method!
Number cuts repeat: 0
value: 87.170732
Number Constraints Used in Cover:259
GRASP Method!
Number cuts repeat: 0
value: 87.170732
Number Constraints Used in Cover:259
GRASP Method!
Number cuts repeat: 0
value: 87.170732
Number Constraints Used in Cover:259
GRASP Method!
Number cuts repeat: 0
value: 87.170732
Number Constraints Used in Cover:259
GRASP Method!
Number cuts repeat: 0
value: 87.170732
Number Constraints Used in Cover:259
GRASP Method!
Number cuts repeat: 0
value: 87.170732
Number Constraints Used in Cover:259
GRASP Method!
Number cuts repeat: 0
value: 87.170732
Number Constraints Used in Cover:261
GRASP Method!
Number cuts repeat: 0
value: 87.170732
Number Constraints Used in Cover:261
GRASP Method!
Number cuts repeat: 0
value: 87.170732
Number Constraints Used in Cover:261
GRASP Method!
Number cuts repeat: 0
value: 87.170732
Number Constraints Used in Cover:261
GRASP Method!
Number cuts repeat: 0
value: 87.170732
Number Constraints Used in Cover:261
GRASP Method!
Number cuts repeat: 0
value: 87.170732
Number Constraints Used in Cover:261
GRASP Method!
Number cuts repeat: 0
value: 87.170732
Number Constraints Used in Cover:261
GRASP Method!
Number cuts repeat: 0
value: 87.170732
Number Constraints Used in Cover:261
GRASP Method!
Number cuts repeat: 0
value: 87.170732
Number Constraints Used in Cover:261
GRASP Method!
Number cuts repeat: 0
value: 87.170732
Number Constraints Used in Cover:261
GRASP Method!
Number cuts repeat: 0
value: 87.170732
Number Constraints Used in Cover:262
GRASP Method!
Number cuts repeat: 0
value: 87.170732
Number Constraints Used in Cover:263
GRASP Method!
Number cuts repeat: 0
value: 87.170732
Number Constraints Used in Cover:263
GRASP Method!
Number cuts repeat: 0
value: 87.170732
Number Constraints Used in Cover:263
GRASP Method!
Number cuts repeat: 0
value: 87.170732
Number Constraints Used in Cover:263
GRASP Method!
Number cuts repeat: 0
value: 87.170732
Number Constraints Used in Cover:266
GRASP Method!
Number cuts repeat: 0
value: 87.170732
Number Constraints Used in Cover:266
GRASP Method!
Number cuts repeat: 0
value: 87.170732
Number Constraints Used in Cover:266
GRASP Method!
Number cuts repeat: 0
value: 87.170732
Number Constraints Used in Cover:266
GRASP Method!
Number cuts repeat: 0
value: 87.170732
Number Constraints Used in Cover:268
GRASP Method!
Number cuts repeat: 0
value: 87.170732
Number Constraints Used in Cover:268
GRASP Method!
Number cuts repeat: 0
value: 87.170732
Number Constraints Used in Cover:268
GRASP Method!
Number cuts repeat: 0
value: 87.170732
Number Constraints Used in Cover:268
GRASP Method!
Number cuts repeat: 0
value: 87.170732
Number Constraints Used in Cover:268
GRASP Method!
Number cuts repeat: 0
value: 87.170732
Number Constraints Used in Cover:268
GRASP Method!
Number cuts repeat: 0
value: 87.170732
Number Constraints Used in Cover:268
GRASP Method!
Number cuts repeat: 0
value: 87.170732
Number Constraints Used in Cover:268
GRASP Method!
Number cuts repeat: 0
value: 87.170732
Number Constraints Used in Cover:268
GRASP Method!
Number cuts repeat: 0
value: 87.170732
Number Constraints Used in Cover:268
GRASP Method!
Number cuts repeat: 0
value: 87.170732
Number Constraints Used in Cover:268
GRASP Method!
Number cuts repeat: 0
value: 87.170732
Number Constraints Used in Cover:268
GRASP Method!
Number cuts repeat: 0
value: 87.170732
Number Constraints Used in Cover:268
GRASP Method!
Number cuts repeat: 0
value: 87.170732
Number Constraints Used in Cover:268
GRASP Method!
Number cuts repeat: 0
value: 87.170732
Number Constraints Used in Cover:268
GRASP Method!
Number cuts repeat: 0
value: 87.170732
Number Constraints Used in Cover:268
GRASP Method!
Number cuts repeat: 0
value: 87.170732
Number Constraints Used in Cover:268
GRASP Method!
Number cuts repeat: 0
value: 87.170732
Number Constraints Used in Cover:268
GRASP Method!
Number cuts repeat: 0
value: 87.170732
Number Constraints Used in Cover:270
GRASP Method!
Number cuts repeat: 0
value: 87.170732
Number Constraints Used in Cover:270
GRASP Method!
Number cuts repeat: 0
value: 87.170732
Number Constraints Used in Cover:270
GRASP Method!
Number cuts repeat: 0
value: 87.170732
Number Constraints Used in Cover:270
GRASP Method!
Number cuts repeat: 0
value: 87.170732
Number Constraints Used in Cover:270
GRASP Method!
Number cuts repeat: 0
value: 87.170732
Number Constraints Used in Cover:270
GRASP Method!
Number cuts repeat: 0
value: 87.170732
Number Constraints Used in Cover:270
GRASP Method!
Number cuts repeat: 0
value: 87.170732
Number Constraints Used in Cover:271
GRASP Method!
Number cuts repeat: 0
value: 87.170732
Number Constraints Used in Cover:271
GRASP Method!
Number cuts repeat: 0
value: 87.170732
Number Constraints Used in Cover:271
GRASP Method!
Number cuts repeat: 0
value: 87.170732
Number Constraints Used in Cover:273
GRASP Method!
Number cuts repeat: 0
value: 87.170732
Number Constraints Used in Cover:273
GRASP Method!
Number cuts repeat: 0
value: 87.170732
Number Constraints Used in Cover:273
GRASP Method!
Number cuts repeat: 0
value: 87.170732
Number Constraints Used in Cover:273
GRASP Method!
Number cuts repeat: 0
value: 87.170732
Number Constraints Used in Cover:273
GRASP Method!
Number cuts repeat: 0
value: 87.170732
Number Constraints Used in Cover:274
GRASP Method!
Number cuts repeat: 0
value: 87.170732
Number Constraints Used in Cover:274
GRASP Method!
Number cuts repeat: 0
value: 87.170732
Number Constraints Used in Cover:274
GRASP Method!
Number cuts repeat: 0
value: 87.170732
Number Constraints Used in Cover:274
GRASP Method!
Number cuts repeat: 0
value: 87.170732
Number Constraints Used in Cover:278
GRASP Method!
Number cuts repeat: 0
value: 87.170732
Number Constraints Used in Cover:278
GRASP Method!
Number cuts repeat: 0
value: 87.170732
Number Constraints Used in Cover:278
GRASP Method!
Number cuts repeat: 0
value: 87.170732
Number Constraints Used in Cover:278
GRASP Method!
Number cuts repeat: 0
value: 87.170732
Number Constraints Used in Cover:278
GRASP Method!
Number cuts repeat: 0
value: 87.170732
Number Constraints Used in Cover:278
GRASP Method!
Number cuts repeat: 0
value: 87.170732
Number Constraints Used in Cover:278
GRASP Method!
Number cuts repeat: 0
value: 87.170732
Number Constraints Used in Cover:278
GRASP Method!
Number cuts repeat: 0
value: 87.170732
Number Constraints Used in Cover:278
GRASP Method!
Number cuts repeat: 0
value: 87.170732
Number Constraints Used in Cover:278
GRASP Method!
Number cuts repeat: 0
value: 87.170732
Number Constraints Used in Cover:278
GRASP Method!
Number cuts repeat: 0
value: 87.170732
Number Constraints Used in Cover:278
GRASP Method!
Number cuts repeat: 0
value: 87.170732
Number Constraints Used in Cover:278
GRASP Method!
Number cuts repeat: 0
value: 87.170732
Number Constraints Used in Cover:278
GRASP Method!
Number cuts repeat: 0
value: 87.170732
Number Constraints Used in Cover:278
GRASP Method!
Number cuts repeat: 0
value: 87.170732
Number Constraints Used in Cover:278
GRASP Method!
Number cuts repeat: 0
value: 87.170732
Number Constraints Used in Cover:278
GRASP Method!
Number cuts repeat: 0
value: 87.170732
Number Constraints Used in Cover:280
GRASP Method!
Number cuts repeat: 0
value: 87.170732
Number Constraints Used in Cover:280
GRASP Method!
Number cuts repeat: 0
value: 87.170732
Number Constraints Used in Cover:280
GRASP Method!
Number cuts repeat: 0
value: 87.170732
Number Constraints Used in Cover:280
GRASP Method!
Number cuts repeat: 0
value: 87.170732
Number Constraints Used in Cover:280
GRASP Method!
Number cuts repeat: 0
value: 87.170732
Number Constraints Used in Cover:280
GRASP Method!
Number cuts repeat: 0
value: 87.170732
Number Constraints Used in Cover:280
GRASP Method!
Number cuts repeat: 0
value: 87.170732
Number Constraints Used in Cover:280
GRASP Method!
Number cuts repeat: 0
value: 87.170732
Number Constraints Used in Cover:280
GRASP Method!
Number cuts repeat: 0
value: 87.170732
Number Constraints Used in Cover:280
GRASP Method!
Number cuts repeat: 0
value: 87.170732
Number Constraints Used in Cover:280
GRASP Method!
Number cuts repeat: 0
value: 87.170732
Number Constraints Used in Cover:280
GRASP Method!
Number cuts repeat: 0
value: 87.170732
Number Constraints Used in Cover:280
GRASP Method!
Number cuts repeat: 0
value: 87.170732
Number Constraints Used in Cover:280
GRASP Method!
Number cuts repeat: 0
value: 87.170732
Number Constraints Used in Cover:280
GRASP Method!
Number cuts repeat: 0
value: 87.170732
Number Constraints Used in Cover:280
GRASP Method!
Number cuts repeat: 0
value: 87.170732
Number Constraints Used in Cover:280
GRASP Method!
Number cuts repeat: 0
value: 87.170732
Number Constraints Used in Cover:280
GRASP Method!
Number cuts repeat: 0
value: 87.170732
Number Constraints Used in Cover:280
GRASP Method!
Number cuts repeat: 0
value: 87.170732
Number Constraints Used in Cover:280
GRASP Method!
Number cuts repeat: 0
value: 87.170732
Number Constraints Used in Cover:280
GRASP Method!
Number cuts repeat: 0
value: 87.170732
Number Constraints Used in Cover:285
GRASP Method!
Number cuts repeat: 0
value: 87.170732
Number Constraints Used in Cover:285
GRASP Method!
Number cuts repeat: 0
value: 87.170732
Number Constraints Used in Cover:285
GRASP Method!
Number cuts repeat: 0
value: 87.170732
Number Constraints Used in Cover:285
GRASP Method!
Number cuts repeat: 0
value: 87.170732
Number Constraints Used in Cover:285
GRASP Method!
Number cuts repeat: 0
value: 87.170732
Number Constraints Used in Cover:285
GRASP Method!
Number cuts repeat: 0
value: 87.170732
Number Constraints Used in Cover:285
GRASP Method!
Number cuts repeat: 0
value: 87.170732
Number Constraints Used in Cover:285
GRASP Method!
Number cuts repeat: 0
value: 87.170732
Number Constraints Used in Cover:288
GRASP Method!
Number cuts repeat: 0
value: 87.170732
Number Constraints Used in Cover:288
GRASP Method!
Number cuts repeat: 0
value: 87.170732
Number Constraints Used in Cover:288
GRASP Method!
Number cuts repeat: 0
value: 87.170732
Number Constraints Used in Cover:288
GRASP Method!
Number cuts repeat: 0
value: 87.170732
Number Constraints Used in Cover:288
GRASP Method!
Number cuts repeat: 0
value: 87.170732
Number Constraints Used in Cover:288
GRASP Method!
Number cuts repeat: 0
value: 87.170732
Number Constraints Used in Cover:288
GRASP Method!
Number cuts repeat: 0
value: 87.170732
Number Constraints Used in Cover:288
GRASP Method!
Number cuts repeat: 0
value: 87.170732
Number Constraints Used in Cover:288
GRASP Method!
Number cuts repeat: 0
value: 87.170732
Number Constraints Used in Cover:292
GRASP Method!
Number cuts repeat: 0
value: 87.170732
Number Constraints Used in Cover:292
GRASP Method!
Number cuts repeat: 0
value: 87.170732
Number Constraints Used in Cover:296
GRASP Method!
Number cuts repeat: 0
value: 87.170732
Number Constraints Used in Cover:296
GRASP Method!
Number cuts repeat: 0
value: 87.170732
Number Constraints Used in Cover:296
GRASP Method!
Number cuts repeat: 0
value: 87.170732
Number Constraints Used in Cover:296
GRASP Method!
Number cuts repeat: 0
value: 87.170732
Number Constraints Used in Cover:296
GRASP Method!
Number cuts repeat: 0
value: 87.170732
Number Constraints Used in Cover:296
GRASP Method!
Number cuts repeat: 0
value: 87.170732
Number Constraints Used in Cover:296
GRASP Method!
Number cuts repeat: 0
value: 87.170732
Number Constraints Used in Cover:296
GRASP Method!
Number cuts repeat: 0
value: 87.170732
Number Constraints Used in Cover:297
GRASP Method!
Number cuts repeat: 0
value: 87.170732
Number Constraints Used in Cover:297
GRASP Method!
Number cuts repeat: 0
value: 87.170732
Number Constraints Used in Cover:297
GRASP Method!
Number cuts repeat: 0
value: 87.170732
Number Constraints Used in Cover:299
GRASP Method!
Number cuts repeat: 0
value: 87.170732
Number Constraints Used in Cover:299
GRASP Method!
Number cuts repeat: 0
value: 87.170732
Number Cuts Final: 294
